
-3.0
-2.9
-2.9
-2.8
-2.8
-2.8
-2.7
-2.7
-2.6
-2.5
-2.4
-2.3
-2.2
-2.2
-2.1
-2.1
-2.0
-1.9
-1.9
-1.9
-1.9
-1.9
-1.9
-1.9
-1.9
-1.9
-1.9
-1.9
-1.9
-1.9
-1.9
-1.9
-1.9
-1.9
-1.9
-3.05
-2.95
-2.85
-2.75
-2.75
-2.75
-2.7
-2.6
-2.5
-2.35
-2.3
-2.15
-2.1
-2.05
-2.05
-1.95
-1.95
-1.9
-1.9
-1.85
-1.85